10
HARD0
 obj=   59       3
0 1 54 
2 3 47 
4 5 45 
6 7 43 
8 9 35 
10 11 30 
12 13 29 
14 15 27 
16 17 24 
18 19 23 
20 21 22 
25 26 28 
31 32 33 
34 36 37 
38 39 40 
41 42 44 
46 48 49 
50 51 52 
53 55 56 
57 58 59 
60 61 62 
63 64 65 
66 67 68 
69 70 71 
72 73 74 
75 76 77 
78 79 80 
81 82 83 
84 85 86 
87 88 89 
90 91 92 
93 94 95 
96 97 98 
99 100 101 
102 103 104 
105 106 107 
108 109 110 191 
111 112 113 179 
114 115 116 177 
117 118 119 170 
120 121 122 161 
123 124 125 158 
126 127 128 152 
129 130 131 142 
132 133 134 135 
136 137 138 139 
140 141 143 144 
145 146 147 148 
149 150 151 153 
154 155 156 157 
159 160 162 163 
164 165 166 167 
168 169 171 172 
173 174 175 176 
178 180 181 182 
183 184 185 186 
187 188 189 190 
192 193 194 195 
196 197 198 199 
HARD1
 obj=   60       3
0 1 69 
2 3 64 
4 5 54 
6 7 53 
8 9 52 
10 11 55 
12 13 41 
14 15 38 
16 17 34 
18 19 32 
20 21 31 
22 23 28 
24 25 26 
27 29 30 
33 35 36 
37 39 40 
42 43 44 
45 46 47 
48 49 50 
51 56 57 
58 59 60 
61 62 63 
65 66 67 
68 70 71 
72 73 74 
75 76 77 
78 79 80 
81 82 83 
84 85 86 
87 88 89 
90 91 92 
93 94 95 
96 97 98 
99 100 101 
102 103 104 
105 106 107 
108 109 110 
111 112 113 
114 115 116 198 
117 118 119 193 
120 121 122 183 
123 124 125 170 
126 127 128 153 
129 130 131 151 
132 133 134 144 
135 136 137 138 
139 140 141 142 
143 145 146 147 
148 149 150 152 
154 155 156 157 
158 159 160 161 
162 163 164 165 
166 167 168 169 
171 172 173 174 
175 176 177 178 
179 180 181 182 
184 185 186 187 
188 189 190 191 
192 194 195 196 
197 199 
HARD2
 obj=   60       4
0 1 75 
2 3 70 
4 5 67 
6 7 65 
8 9 61 
10 11 54 
12 13 50 
14 15 46 
16 17 44 
18 19 45 
20 21 34 
22 23 27 
24 25 26 
28 29 30 
31 32 33 
35 36 37 
38 39 40 
41 42 43 
47 48 49 
51 52 53 
55 56 57 
58 59 60 
62 63 64 
66 68 69 
71 72 73 
74 76 77 
78 79 80 
81 82 83 
84 85 86 
87 88 89 
90 91 92 
93 94 95 
96 97 98 
99 100 101 
102 103 104 
105 106 107 
108 109 110 
111 112 113 
114 115 116 197 
117 118 119 191 
120 121 122 180 
123 124 125 177 
126 127 128 157 
129 130 131 148 
132 133 134 136 
135 137 138 139 
140 141 142 143 
144 145 146 147 
149 150 151 152 
153 154 155 156 
158 159 160 161 
162 163 164 165 
166 167 168 169 
170 171 172 173 
174 175 176 178 
179 181 182 183 
184 185 186 187 
188 189 190 192 
193 194 195 196 
198 199 
HARD3
 obj=   59       4
0 1 56 
2 3 57 
4 5 52 
6 7 48 
8 9 31 
10 11 27 
12 13 26 
14 15 23 
16 17 18 
19 20 21 
22 24 25 
28 29 30 
32 33 34 
35 36 37 
38 39 40 
41 42 43 
44 45 46 
47 49 50 
51 53 54 
55 58 59 
60 61 62 
63 64 65 
66 67 68 
69 70 71 
72 73 74 
75 76 77 
78 79 80 
81 82 83 
84 85 86 
87 88 89 
90 91 92 
93 94 95 
96 97 98 
99 100 101 
102 103 104 
105 106 107 199 
108 109 110 191 
111 112 113 180 
114 115 116 175 
117 118 119 155 
120 121 122 145 
123 124 125 142 
126 127 128 131 
129 130 132 133 
134 135 136 137 
138 139 140 141 
143 144 146 147 
148 149 150 151 
152 153 154 156 
157 158 159 160 
161 162 163 164 
165 166 167 168 
169 170 171 172 
173 174 176 177 
178 179 181 182 
183 184 185 186 
187 188 189 190 
192 193 194 195 
196 197 198 
HARD4
 obj=   60       3
0 1 70 
2 3 63 
4 5 53 
6 7 47 
8 9 46 
10 11 44 
12 13 40 
14 15 37 
16 17 35 
18 19 20 
21 22 23 
24 25 26 
27 28 29 
30 31 32 
33 34 36 
38 39 41 
42 43 45 
48 49 50 
51 52 54 
55 56 57 
58 59 60 
61 62 64 
65 66 67 
68 69 71 
72 73 74 
75 76 77 
78 79 80 
81 82 83 
84 85 86 
87 88 89 
90 91 92 
93 94 95 
96 97 98 
99 100 101 
102 103 104 
105 106 107 
108 109 110 
111 112 113 
114 115 116 
117 118 119 199 
120 121 122 190 
123 124 125 185 
126 127 128 165 
129 130 131 157 
132 133 134 150 
135 136 137 141 
138 139 140 142 
143 144 145 146 
147 148 149 151 
152 153 154 155 
156 158 159 160 
161 162 163 164 
166 167 168 169 
170 171 172 173 
174 175 176 177 
178 179 180 181 
182 183 184 186 
187 188 189 191 
192 193 194 195 
196 197 198 
HARD5
 obj=   59       3
0 1 61 
2 3 50 
4 5 46 
6 7 47 
8 9 35 
10 11 36 
12 13 29 
14 15 21 
16 17 19 
18 20 22 
23 24 25 
26 27 28 
30 31 32 
33 34 37 
38 39 40 
41 42 43 
44 45 48 
49 51 52 
53 54 55 
56 57 58 
59 60 62 
63 64 65 
66 67 68 
69 70 71 
72 73 74 
75 76 77 
78 79 80 
81 82 83 
84 85 86 
87 88 89 
90 91 92 
93 94 95 
96 97 98 
99 100 101 
102 103 104 
105 106 107 199 
108 109 110 187 
111 112 113 182 
114 115 116 179 
117 118 119 175 
120 121 122 172 
123 124 125 161 
126 127 128 157 
129 130 131 144 
132 133 134 139 
135 136 137 138 
140 141 142 143 
145 146 147 148 
149 150 151 152 
153 154 155 156 
158 159 160 162 
163 164 165 166 
167 168 169 170 
171 173 174 176 
177 178 180 181 
183 184 185 186 
188 189 190 191 
192 193 194 195 
196 197 198 
HARD6
 obj=   60       3
0 1 68 
2 3 66 
4 5 60 
6 7 61 
8 9 54 
10 11 52 
12 13 45 
14 15 43 
16 17 38 
18 19 33 
20 21 26 
22 23 24 
25 27 28 
29 30 31 
32 34 35 
36 37 39 
40 41 42 
44 46 47 
48 49 50 
51 53 55 
56 57 58 
59 62 63 
64 65 67 
69 70 71 
72 73 74 
75 76 77 
78 79 80 
81 82 83 
84 85 86 
87 88 89 
90 91 92 
93 94 95 
96 97 98 
99 100 101 
102 103 104 
105 106 107 
108 109 110 
111 112 113 195 
114 115 116 189 
117 118 119 190 
120 121 122 181 
123 124 125 171 
126 127 128 166 
129 130 131 157 
132 133 134 138 
135 136 137 139 
140 141 142 143 
144 145 146 147 
148 149 150 151 
152 153 154 155 
156 158 159 160 
161 162 163 164 
165 167 168 169 
170 172 173 174 
175 176 177 178 
179 180 182 183 
184 185 186 187 
188 191 192 193 
194 196 197 198 
199 
HARD7
 obj=   59       4
0 1 54 
2 3 49 
4 5 45 
6 7 46 
8 9 34 
10 11 33 
12 13 31 
14 15 29 
16 17 28 
18 19 24 
20 21 22 
23 25 26 
27 30 32 
35 36 37 
38 39 40 
41 42 43 
44 47 48 
50 51 52 
53 55 56 
57 58 59 
60 61 62 
63 64 65 
66 67 68 
69 70 71 
72 73 74 
75 76 77 
78 79 80 
81 82 83 
84 85 86 
87 88 89 
90 91 92 
93 94 95 
96 97 98 
99 100 101 188 
102 103 104 179 
105 106 107 170 
108 109 110 148 
111 112 113 133 
114 115 116 121 
117 118 119 120 
122 123 124 125 
126 127 128 129 
130 131 132 134 
135 136 137 138 
139 140 141 142 
143 144 145 146 
147 149 150 151 
152 153 154 155 
156 157 158 159 
160 161 162 163 
164 165 166 167 
168 169 171 172 
173 174 175 176 
177 178 180 181 
182 183 184 185 
186 187 189 190 
191 192 193 194 
195 196 197 198 
199 
HARD8
 obj=   60       3
0 1 74 
2 3 67 
4 5 60 
6 7 54 
8 9 52 
10 11 49 
12 13 41 
14 15 37 
16 17 36 
18 19 29 
20 21 28 
22 23 25 
24 26 27 
30 31 32 
33 34 35 
38 39 40 
42 43 44 
45 46 47 
48 50 51 
53 55 56 
57 58 59 
61 62 63 
64 65 66 
68 69 70 
71 72 73 
75 76 77 
78 79 80 
81 82 83 
84 85 86 
87 88 89 
90 91 92 
93 94 95 
96 97 98 
99 100 101 
102 103 104 
105 106 107 
108 109 110 
111 112 113 194 
114 115 116 189 
117 118 119 186 
120 121 122 177 
123 124 125 173 
126 127 128 165 
129 130 131 154 
132 133 134 139 
135 136 137 138 
140 141 142 143 
144 145 146 147 
148 149 150 151 
152 153 155 156 
157 158 159 160 
161 162 163 164 
166 167 168 169 
170 171 172 174 
175 176 178 179 
180 181 182 183 
184 185 187 188 
190 191 192 193 
195 196 197 198 
199 
HARD9
 obj=   60       4
0 1 66 
2 3 64 
4 5 60 
6 7 58 
8 9 51 
10 11 48 
12 13 46 
14 15 43 
16 17 41 
18 19 35 
20 21 33 
22 23 31 
24 25 26 
27 28 29 
30 32 34 
36 37 38 
39 40 42 
44 45 47 
49 50 52 
53 54 55 
56 57 59 
61 62 63 
65 67 68 
69 70 71 
72 73 74 
75 76 77 
78 79 80 
81 82 83 
84 85 86 
87 88 89 
90 91 92 
93 94 95 
96 97 98 
99 100 101 
102 103 104 
105 106 107 
108 109 110 
111 112 113 180 
114 115 116 166 
117 118 119 161 
120 121 122 157 
123 124 125 151 
126 127 128 140 
129 130 131 134 
132 133 135 136 
137 138 139 141 
142 143 144 145 
146 147 148 149 
150 152 153 154 
155 156 158 159 
160 162 163 164 
165 167 168 169 
170 171 172 173 
174 175 176 177 
178 179 181 182 
183 184 185 186 
187 188 189 190 
191 192 193 194 
195 196 197 198 
199 
